peakDumbCharging = 7400; 
Machine = anon_enum(16); 
machineSpeed = [3700,3700,3700,3700,3700,3700,3700,3700,3700,3700,3700,3700,3700,3700,3700,3700]; 
machineLoad = [3700,3700,3700,3700,3700,3700,3700,3700,3700,3700,3700,3700,3700,3700,3700,3700]; 
Car = anon_enum(8); 
demandCar = [2120,28400,13320,5320,24960,15360,5800,16240]; 
arrivalCar = [80,76,72,62,57,55,48,32]; 
departureCar = [83,86,77,64,77,61,52,46]; 
